NAME : portcgen-21-29
COMMENT : portcgen N=21, seed=29
TYPE : TSP
DIMENSION : 21
EDGE_WEIGHT_TYPE : EUC_2D
NODE_COORD_SECTION
1 -280959 -191212
2 -18655 499368
3 468916 -37101
4 250018 -91556
5 -147653 -102479
6 -258576 92961
7 -326117 -410273
8 -44146 -46491
9 65980 -122501
10 -298734 -298396
11 -347949 150749
12 235822 -70078
13 128506 406506
14 145940 100932
15 202252 357888
16 -24151 185440
17 -59126 -166259
18 -124607 -11075
19 -139029 58722
20 79295 152216
21 97806 540196
